p cnf 12 52
1 0
-1 -2 0
-1 -3 0
-2 -3 0
4 5 0
-4 -5 0
-4 -6 0
-5 -6 0
7 8 9 0
-7 -8 0
-7 -9 0
-8 -9 0
10 11 12 0
-10 -11 0
-10 -12 0
-11 -12 0
-7 -10 0
-7 -11 0
-8 -10 0
-8 -11 0
-8 -12 0
-9 -10 0
-9 -11 0
-9 -12 0
-9 0
1 4 7 10 0
2 1 5 4 0
2 1 8 11 0
5 4 8 11 0
-2 -5 -8 0
-2 -5 -11 0
-2 -4 -8 0
-2 -4 -11 0
-1 -5 -8 0
-1 -5 -11 0
-1 -4 -8 0
-1 -4 -11 0
3 2 1 6 5 0
3 2 1 9 12 0
6 5 9 12 0
-3 -6 -9 0
-3 -6 -12 0
-3 -5 -9 0
-3 -5 -12 0
-2 -6 -9 0
-2 -6 -12 0
-2 -5 -9 0
-2 -5 -12 0
-1 -6 -9 0
-1 -6 -12 0
-1 -5 -9 0
-1 -5 -12 0
